p edge 40 244
e 1 9
e 1 11
e 1 14
e 1 16
e 1 20
e 1 21
e 1 23
e 1 28
e 1 30
e 1 31
e 1 33
e 1 34
e 1 37
e 1 40
e 2 4
e 2 10
e 2 13
e 2 15
e 2 18
e 2 23
e 2 26
e 2 28
e 2 31
e 2 33
e 2 34
e 2 38
e 3 4
e 3 5
e 3 8
e 3 11
e 3 14
e 3 15
e 3 16
e 3 18
e 3 23
e 3 27
e 3 30
e 3 31
e 3 38
e 3 39
e 4 5
e 4 9
e 4 10
e 4 13
e 4 15
e 4 21
e 4 22
e 4 26
e 4 29
e 4 37
e 4 39
e 4 40
e 5 6
e 5 10
e 5 14
e 5 17
e 5 20
e 5 21
e 5 25
e 5 30
e 5 38
e 6 9
e 6 11
e 6 12
e 6 18
e 6 19
e 6 22
e 6 26
e 6 31
e 6 32
e 6 33
e 6 35
e 7 14
e 7 15
e 7 18
e 7 19
e 7 21
e 7 22
e 7 23
e 7 40
e 8 9
e 8 11
e 8 15
e 8 19
e 8 22
e 8 23
e 8 24
e 8 26
e 8 31
e 8 36
e 8 37
e 8 39
e 9 12
e 9 13
e 9 17
e 9 20
e 9 28
e 9 34
e 9 36
e 9 37
e 9 40
e 10 14
e 10 17
e 10 18
e 10 19
e 10 20
e 10 21
e 10 23
e 10 24
e 10 28
e 10 34
e 11 12
e 11 13
e 11 16
e 11 19
e 11 24
e 11 27
e 11 32
e 11 37
e 12 14
e 12 17
e 12 18
e 12 19
e 12 34
e 12 39
e 12 40
e 13 16
e 13 19
e 13 22
e 13 28
e 13 30
e 13 33
e 13 34
e 13 35
e 13 36
e 13 40
e 14 15
e 14 16
e 14 21
e 14 26
e 14 32
e 14 35
e 15 18
e 15 20
e 15 36
e 15 37
e 16 17
e 16 18
e 16 21
e 16 29
e 16 31
e 16 32
e 16 35
e 16 36
e 17 21
e 17 25
e 17 29
e 17 31
e 17 32
e 17 35
e 18 19
e 18 20
e 18 23
e 18 26
e 18 30
e 18 31
e 18 36
e 18 37
e 18 38
e 18 40
e 19 36
e 19 38
e 19 40
e 20 21
e 20 23
e 20 24
e 20 26
e 20 33
e 20 35
e 20 39
e 21 25
e 21 26
e 21 28
e 21 31
e 21 33
e 21 34
e 21 37
e 22 23
e 22 24
e 22 25
e 22 29
e 22 30
e 22 31
e 22 34
e 22 35
e 22 36
e 22 39
e 23 24
e 23 25
e 23 26
e 23 28
e 23 33
e 23 34
e 23 36
e 23 40
e 24 28
e 24 33
e 24 37
e 24 39
e 25 30
e 25 33
e 25 35
e 25 36
e 25 40
e 26 33
e 26 34
e 26 36
e 26 38
e 26 40
e 27 29
e 27 35
e 27 39
e 28 34
e 28 36
e 29 31
e 29 39
e 29 40
e 30 35
e 30 36
e 30 38
e 30 39
e 31 32
e 31 36
e 32 39
e 32 40
e 33 34
e 33 36
e 33 39
e 34 36
e 35 36
e 35 39
e 35 40
e 36 40
e 38 39
